Minimize
obj: -1 V4 + 1 V5
Subject To
CON1: 1 V1 >= 0.0
CON2: 1 V2 >= 2.0
CON3: 1 V3 <= 2.5
CON4: 1 V5 + 1 V6 + 1 V7 <= 1.0
Bounds
-inf <= V1 <= 3
-inf <= V2 <= 3
-inf <= V3 <= 3
5.5 <= V4 <= +inf
0 <= V5 <= 1
0 <= V6 <= 1
0 <= V7 <= 1
0 <= V8 <= 1
General
V4
Binary
V8
End
